NAME          DCAP_3_4_2_200_SS144
ROWS
 N  OBJ
 L  CON1
 L  CON2
 L  CON3
 L  CON4
 L  CON5
 L  CON6
 L  CON7
 L  CON8
 L  CON9
 L  CON10
 L  CON11
 L  CON12
 E  CON13
 E  CON14
 E  CON15
 E  CON16
 E  CON17
 E  CON18
 E  CON19
 E  CON20
COLUMNS
    x[1,1]    OBJ       6.180167      CON1      1.000000    
    x[1,1]    CON7      -1.000000     CON8      -1.000000   
    x[1,2]    OBJ       5.039546      CON2      1.000000    
    x[1,2]    CON8      -1.000000   
    x[2,1]    OBJ       6.732585      CON3      1.000000    
    x[2,1]    CON9      -1.000000     CON10     -1.000000   
    x[2,2]    OBJ       7.443064      CON4      1.000000    
    x[2,2]    CON10     -1.000000   
    x[3,1]    OBJ       6.563535      CON5      1.000000    
    x[3,1]    CON11     -1.000000     CON12     -1.000000   
    x[3,2]    OBJ       6.054841      CON6      1.000000    
    x[3,2]    CON12     -1.000000   
    MARKER    'MARKER'                'INTORG'
    u[1,1]    OBJ       48.076654     CON1      -1.000000   
    u[1,2]    OBJ       49.466655     CON2      -1.000000   
    u[2,1]    OBJ       49.996186     CON3      -1.000000   
    u[2,2]    OBJ       32.230043     CON4      -1.000000   
    u[3,1]    OBJ       20.066487     CON5      -1.000000   
    u[3,2]    OBJ       27.484319     CON6      -1.000000   
    y[1,1,1]  OBJ       9.759610      CON7      1.374729    
    y[1,1,1]  CON13     1.000000    
    y[1,1,2]  OBJ       9.656108      CON8      0.684151    
    y[1,1,2]  CON14     1.000000    
    y[1,2,1]  OBJ       5.443123      CON7      1.365811    
    y[1,2,1]  CON15     1.000000    
    y[1,2,2]  OBJ       6.122682      CON8      0.659073    
    y[1,2,2]  CON16     1.000000    
    y[1,3,1]  OBJ       6.649074      CON7      1.277944    
    y[1,3,1]  CON17     1.000000    
    y[1,3,2]  OBJ       7.800581      CON8      1.124558    
    y[1,3,2]  CON18     1.000000    
    y[1,4,1]  OBJ       6.625299      CON7      1.297695    
    y[1,4,1]  CON19     1.000000    
    y[1,4,2]  OBJ       6.693451      CON8      0.914064    
    y[1,4,2]  CON20     1.000000    
    y[2,1,1]  OBJ       7.037427      CON9      1.374729    
    y[2,1,1]  CON13     1.000000    
    y[2,1,2]  OBJ       9.966155      CON10     0.684151    
    y[2,1,2]  CON14     1.000000    
    y[2,2,1]  OBJ       6.194680      CON9      1.365811    
    y[2,2,1]  CON15     1.000000    
    y[2,2,2]  OBJ       5.793770      CON10     0.659073    
    y[2,2,2]  CON16     1.000000    
    y[2,3,1]  OBJ       5.157673      CON9      1.277944    
    y[2,3,1]  CON17     1.000000    
    y[2,3,2]  OBJ       9.424320      CON10     1.124558    
    y[2,3,2]  CON18     1.000000    
    y[2,4,1]  OBJ       5.466193      CON9      1.297695    
    y[2,4,1]  CON19     1.000000    
    y[2,4,2]  OBJ       7.610302      CON10     0.914064    
    y[2,4,2]  CON20     1.000000    
    y[3,1,1]  OBJ       6.193971      CON11     1.374729    
    y[3,1,1]  CON13     1.000000    
    y[3,1,2]  OBJ       5.959946      CON12     0.684151    
    y[3,1,2]  CON14     1.000000    
    y[3,2,1]  OBJ       8.896154      CON11     1.365811    
    y[3,2,1]  CON15     1.000000    
    y[3,2,2]  OBJ       9.844329      CON12     0.659073    
    y[3,2,2]  CON16     1.000000    
    y[3,3,1]  OBJ       7.830546      CON11     1.277944    
    y[3,3,1]  CON17     1.000000    
    y[3,3,2]  OBJ       8.921420      CON12     1.124558    
    y[3,3,2]  CON18     1.000000    
    y[3,4,1]  OBJ       9.813518      CON11     1.297695    
    y[3,4,1]  CON19     1.000000    
    y[3,4,2]  OBJ       7.059321      CON12     0.914064    
    y[3,4,2]  CON20     1.000000    
    z[1,1]    OBJ       583.757874    CON13     1.000000    
    z[1,2]    OBJ       673.544222    CON14     1.000000    
    z[2,1]    OBJ       941.772202    CON15     1.000000    
    z[2,2]    OBJ       999.561904    CON16     1.000000    
    z[3,1]    OBJ       834.718993    CON17     1.000000    
    z[3,2]    OBJ       839.592611    CON18     1.000000    
    z[4,1]    OBJ       636.957665    CON19     1.000000    
    z[4,2]    OBJ       816.152782    CON20     1.000000    
    MARKER    'MARKER'                 'INTEND'
RHS
    RHS       CON1      -0.000000     CON2      -0.000000   
    RHS       CON3      -0.000000     CON4      -0.000000   
    RHS       CON5      -0.000000     CON6      -0.000000   
    RHS       CON7      -0.000000     CON8      -0.000000   
    RHS       CON9      -0.000000     CON10     -0.000000   
    RHS       CON11     -0.000000     CON12     -0.000000   
    RHS       CON13     1.000000      CON14     1.000000    
    RHS       CON15     1.000000      CON16     1.000000    
    RHS       CON17     1.000000      CON18     1.000000    
    RHS       CON19     1.000000      CON20     1.000000    
BOUNDS
 BV BOUND     u[1,1]  
 BV BOUND     u[1,2]  
 BV BOUND     u[2,1]  
 BV BOUND     u[2,2]  
 BV BOUND     u[3,1]  
 BV BOUND     u[3,2]  
 BV BOUND     y[1,1,1]
 BV BOUND     y[1,1,2]
 BV BOUND     y[1,2,1]
 BV BOUND     y[1,2,2]
 BV BOUND     y[1,3,1]
 BV BOUND     y[1,3,2]
 BV BOUND     y[1,4,1]
 BV BOUND     y[1,4,2]
 BV BOUND     y[2,1,1]
 BV BOUND     y[2,1,2]
 BV BOUND     y[2,2,1]
 BV BOUND     y[2,2,2]
 BV BOUND     y[2,3,1]
 BV BOUND     y[2,3,2]
 BV BOUND     y[2,4,1]
 BV BOUND     y[2,4,2]
 BV BOUND     y[3,1,1]
 BV BOUND     y[3,1,2]
 BV BOUND     y[3,2,1]
 BV BOUND     y[3,2,2]
 BV BOUND     y[3,3,1]
 BV BOUND     y[3,3,2]
 BV BOUND     y[3,4,1]
 BV BOUND     y[3,4,2]
 BV BOUND     z[1,1]  
 BV BOUND     z[1,2]  
 BV BOUND     z[2,1]  
 BV BOUND     z[2,2]  
 BV BOUND     z[3,1]  
 BV BOUND     z[3,2]  
 BV BOUND     z[4,1]  
 BV BOUND     z[4,2]  
ENDATA
